min: T;
r_00_4 = 0;
r_01_4 = 0;
r_02_4 = 0;
r_03_4 = 0;
2.2 a_10_0 + 2.2 a_11_0 + 2.2 a_01_0 + 2.2 a_04_0 + 2.2 a_05_0 + 11 x_01_0 + r_01_0 x_01_0 <= r_04_0;
2.2 a_10_1 + 2.2 a_11_1 + 2.2 a_01_1 + 2.2 a_04_1 + 2.2 a_05_1 + 11 x_01_1 + r_01_1 x_01_1 <= r_04_1;
2.2 a_10_2 + 2.2 a_11_2 + 2.2 a_01_2 + 2.2 a_04_2 + 2.2 a_05_2 + 11 x_01_2 + r_01_2 x_01_2 <= r_04_2;
2.2 a_10_3 + 2.2 a_11_3 + 2.2 a_01_3 + 2.2 a_04_3 + 2.2 a_05_3 + 11 x_01_3 + r_01_3 x_01_3 <= r_04_3;
2.2 a_10_4 + 2.2 a_11_4 + 2.2 a_01_4 + 2.2 a_04_4 + 2.2 a_05_4 + 11 x_01_4 + r_01_4 x_01_4 <= r_04_4;
2.2 a_10_0 + 2.2 a_11_0 + 2.2 a_01_0 + 2.2 a_04_0 + 2.2 a_05_0 + 11 x_01_0 + r_01_0 x_01_0 <= r_05_0;
2.2 a_10_1 + 2.2 a_11_1 + 2.2 a_01_1 + 2.2 a_04_1 + 2.2 a_05_1 + 11 x_01_1 + r_01_1 x_01_1 <= r_05_1;
2.2 a_10_2 + 2.2 a_11_2 + 2.2 a_01_2 + 2.2 a_04_2 + 2.2 a_05_2 + 11 x_01_2 + r_01_2 x_01_2 <= r_05_2;
2.2 a_10_3 + 2.2 a_11_3 + 2.2 a_01_3 + 2.2 a_04_3 + 2.2 a_05_3 + 11 x_01_3 + r_01_3 x_01_3 <= r_05_3;
2.2 a_10_4 + 2.2 a_11_4 + 2.2 a_01_4 + 2.2 a_04_4 + 2.2 a_05_4 + 11 x_01_4 + r_01_4 x_01_4 <= r_05_4;
4.4 a_12_0 + 4.4 a_13_0 + 4.4 a_02_0 + 4.4 a_06_0 + 4.4 a_07_0 + 11 x_02_0 + r_02_0 x_02_0 <= r_06_0;
4.4 a_12_1 + 4.4 a_13_1 + 4.4 a_02_1 + 4.4 a_06_1 + 4.4 a_07_1 + 11 x_02_1 + r_02_1 x_02_1 <= r_06_1;
4.4 a_12_2 + 4.4 a_13_2 + 4.4 a_02_2 + 4.4 a_06_2 + 4.4 a_07_2 + 11 x_02_2 + r_02_2 x_02_2 <= r_06_2;
4.4 a_12_3 + 4.4 a_13_3 + 4.4 a_02_3 + 4.4 a_06_3 + 4.4 a_07_3 + 11 x_02_3 + r_02_3 x_02_3 <= r_06_3;
4.4 a_12_4 + 4.4 a_13_4 + 4.4 a_02_4 + 4.4 a_06_4 + 4.4 a_07_4 + 11 x_02_4 + r_02_4 x_02_4 <= r_06_4;
4.4 a_12_0 + 4.4 a_13_0 + 4.4 a_02_0 + 4.4 a_06_0 + 4.4 a_07_0 + 11 x_02_0 + r_02_0 x_02_0 <= r_07_0;
4.4 a_12_1 + 4.4 a_13_1 + 4.4 a_02_1 + 4.4 a_06_1 + 4.4 a_07_1 + 11 x_02_1 + r_02_1 x_02_1 <= r_07_1;
4.4 a_12_2 + 4.4 a_13_2 + 4.4 a_02_2 + 4.4 a_06_2 + 4.4 a_07_2 + 11 x_02_2 + r_02_2 x_02_2 <= r_07_2;
4.4 a_12_3 + 4.4 a_13_3 + 4.4 a_02_3 + 4.4 a_06_3 + 4.4 a_07_3 + 11 x_02_3 + r_02_3 x_02_3 <= r_07_3;
4.4 a_12_4 + 4.4 a_13_4 + 4.4 a_02_4 + 4.4 a_06_4 + 4.4 a_07_4 + 11 x_02_4 + r_02_4 x_02_4 <= r_07_4;
4.4 a_14_0 + 4.4 a_15_0 + 4.4 a_03_0 + 4.4 a_08_0 + 4.4 a_09_0 + 11 x_03_0 + r_03_0 x_03_0 <= r_08_0;
4.4 a_14_1 + 4.4 a_15_1 + 4.4 a_03_1 + 4.4 a_08_1 + 4.4 a_09_1 + 11 x_03_1 + r_03_1 x_03_1 <= r_08_1;
4.4 a_14_2 + 4.4 a_15_2 + 4.4 a_03_2 + 4.4 a_08_2 + 4.4 a_09_2 + 11 x_03_2 + r_03_2 x_03_2 <= r_08_2;
4.4 a_14_3 + 4.4 a_15_3 + 4.4 a_03_3 + 4.4 a_08_3 + 4.4 a_09_3 + 11 x_03_3 + r_03_3 x_03_3 <= r_08_3;
4.4 a_14_4 + 4.4 a_15_4 + 4.4 a_03_4 + 4.4 a_08_4 + 4.4 a_09_4 + 11 x_03_4 + r_03_4 x_03_4 <= r_08_4;
4.4 a_14_0 + 4.4 a_15_0 + 4.4 a_03_0 + 4.4 a_08_0 + 4.4 a_09_0 + 11 x_03_0 + r_03_0 x_03_0 <= r_09_0;
4.4 a_14_1 + 4.4 a_15_1 + 4.4 a_03_1 + 4.4 a_08_1 + 4.4 a_09_1 + 11 x_03_1 + r_03_1 x_03_1 <= r_09_1;
4.4 a_14_2 + 4.4 a_15_2 + 4.4 a_03_2 + 4.4 a_08_2 + 4.4 a_09_2 + 11 x_03_2 + r_03_2 x_03_2 <= r_09_2;
4.4 a_14_3 + 4.4 a_15_3 + 4.4 a_03_3 + 4.4 a_08_3 + 4.4 a_09_3 + 11 x_03_3 + r_03_3 x_03_3 <= r_09_3;
4.4 a_14_4 + 4.4 a_15_4 + 4.4 a_03_4 + 4.4 a_08_4 + 4.4 a_09_4 + 11 x_03_4 + r_03_4 x_03_4 <= r_09_4;
4.4 a_10_0 + 4.4 a_04_0 + 11 x_04_0 + r_04_0 x_04_0 <= r_10_0;
4.4 a_10_1 + 4.4 a_04_1 + 11 x_04_1 + r_04_1 x_04_1 <= r_10_1;
4.4 a_10_2 + 4.4 a_04_2 + 11 x_04_2 + r_04_2 x_04_2 <= r_10_2;
4.4 a_10_3 + 4.4 a_04_3 + 11 x_04_3 + r_04_3 x_04_3 <= r_10_3;
4.4 a_10_4 + 4.4 a_04_4 + 11 x_04_4 + r_04_4 x_04_4 <= r_10_4;
4.4 a_11_0 + 4.4 a_05_0 + 11 x_05_0 + r_05_0 x_05_0 <= r_11_0;
4.4 a_11_1 + 4.4 a_05_1 + 11 x_05_1 + r_05_1 x_05_1 <= r_11_1;
4.4 a_11_2 + 4.4 a_05_2 + 11 x_05_2 + r_05_2 x_05_2 <= r_11_2;
4.4 a_11_3 + 4.4 a_05_3 + 11 x_05_3 + r_05_3 x_05_3 <= r_11_3;
4.4 a_11_4 + 4.4 a_05_4 + 11 x_05_4 + r_05_4 x_05_4 <= r_11_4;
2.2 a_12_0 + 2.2 a_06_0 + 11 x_06_0 + r_06_0 x_06_0 <= r_12_0;
4.4 a_10_0 + 11 x_10_0 + r_10_0 x_10_0 <= r_12_0;
2.2 a_12_1 + 2.2 a_06_1 + 11 x_06_1 + r_06_1 x_06_1 <= r_12_1;
4.4 a_10_1 + 11 x_10_1 + r_10_1 x_10_1 <= r_12_1;
2.2 a_12_2 + 2.2 a_06_2 + 11 x_06_2 + r_06_2 x_06_2 <= r_12_2;
4.4 a_10_2 + 11 x_10_2 + r_10_2 x_10_2 <= r_12_2;
2.2 a_12_3 + 2.2 a_06_3 + 11 x_06_3 + r_06_3 x_06_3 <= r_12_3;
4.4 a_10_3 + 11 x_10_3 + r_10_3 x_10_3 <= r_12_3;
2.2 a_12_4 + 2.2 a_06_4 + 11 x_06_4 + r_06_4 x_06_4 <= r_12_4;
4.4 a_10_4 + 11 x_10_4 + r_10_4 x_10_4 <= r_12_4;
4.4 a_13_0 + 4.4 a_07_0 + 11 x_07_0 + r_07_0 x_07_0 <= r_13_0;
4.4 a_13_1 + 4.4 a_07_1 + 11 x_07_1 + r_07_1 x_07_1 <= r_13_1;
4.4 a_13_2 + 4.4 a_07_2 + 11 x_07_2 + r_07_2 x_07_2 <= r_13_2;
4.4 a_13_3 + 4.4 a_07_3 + 11 x_07_3 + r_07_3 x_07_3 <= r_13_3;
4.4 a_13_4 + 4.4 a_07_4 + 11 x_07_4 + r_07_4 x_07_4 <= r_13_4;
4.4 a_14_0 + 4.4 a_08_0 + 11 x_08_0 + r_08_0 x_08_0 <= r_14_0;
2.2 a_13_0 + 11 x_13_0 + r_13_0 x_13_0 <= r_14_0;
4.4 a_14_1 + 4.4 a_08_1 + 11 x_08_1 + r_08_1 x_08_1 <= r_14_1;
2.2 a_13_1 + 11 x_13_1 + r_13_1 x_13_1 <= r_14_1;
4.4 a_14_2 + 4.4 a_08_2 + 11 x_08_2 + r_08_2 x_08_2 <= r_14_2;
2.2 a_13_2 + 11 x_13_2 + r_13_2 x_13_2 <= r_14_2;
4.4 a_14_3 + 4.4 a_08_3 + 11 x_08_3 + r_08_3 x_08_3 <= r_14_3;
2.2 a_13_3 + 11 x_13_3 + r_13_3 x_13_3 <= r_14_3;
4.4 a_14_4 + 4.4 a_08_4 + 11 x_08_4 + r_08_4 x_08_4 <= r_14_4;
2.2 a_13_4 + 11 x_13_4 + r_13_4 x_13_4 <= r_14_4;
2.2 a_15_0 + 2.2 a_09_0 + 11 x_09_0 + r_09_0 x_09_0 <= r_15_0;
4.4 a_11_0 + 11 x_11_0 + r_11_0 x_11_0 <= r_15_0;
2.2 a_15_1 + 2.2 a_09_1 + 11 x_09_1 + r_09_1 x_09_1 <= r_15_1;
4.4 a_11_1 + 11 x_11_1 + r_11_1 x_11_1 <= r_15_1;
2.2 a_15_2 + 2.2 a_09_2 + 11 x_09_2 + r_09_2 x_09_2 <= r_15_2;
4.4 a_11_2 + 11 x_11_2 + r_11_2 x_11_2 <= r_15_2;
2.2 a_15_3 + 2.2 a_09_3 + 11 x_09_3 + r_09_3 x_09_3 <= r_15_3;
4.4 a_11_3 + 11 x_11_3 + r_11_3 x_11_3 <= r_15_3;
2.2 a_15_4 + 2.2 a_09_4 + 11 x_09_4 + r_09_4 x_09_4 <= r_15_4;
4.4 a_11_4 + 11 x_11_4 + r_11_4 x_11_4 <= r_15_4;
r_00_0 x_00_0 <= t_00_0;
r_00_1 x_00_1 <= t_00_1;
r_00_2 x_00_2 <= t_00_2;
r_00_3 x_00_3 <= t_00_3;
r_00_4 x_00_4 <= t_00_4;
2.2 a_10_0 + 2.2 a_11_0 + 2.2 a_01_0 + 2.2 a_04_0 + 2.2 a_05_0 + 11 x_01_0 + r_01_0 x_01_0 <= t_01_0;
2.2 a_10_1 + 2.2 a_11_1 + 2.2 a_01_1 + 2.2 a_04_1 + 2.2 a_05_1 + 11 x_01_1 + r_01_1 x_01_1 <= t_01_1;
2.2 a_10_2 + 2.2 a_11_2 + 2.2 a_01_2 + 2.2 a_04_2 + 2.2 a_05_2 + 11 x_01_2 + r_01_2 x_01_2 <= t_01_2;
2.2 a_10_3 + 2.2 a_11_3 + 2.2 a_01_3 + 2.2 a_04_3 + 2.2 a_05_3 + 11 x_01_3 + r_01_3 x_01_3 <= t_01_3;
2.2 a_10_4 + 2.2 a_11_4 + 2.2 a_01_4 + 2.2 a_04_4 + 2.2 a_05_4 + 11 x_01_4 + r_01_4 x_01_4 <= t_01_4;
4.4 a_12_0 + 4.4 a_13_0 + 4.4 a_02_0 + 4.4 a_06_0 + 4.4 a_07_0 + 11 x_02_0 + r_02_0 x_02_0 <= t_02_0;
4.4 a_12_1 + 4.4 a_13_1 + 4.4 a_02_1 + 4.4 a_06_1 + 4.4 a_07_1 + 11 x_02_1 + r_02_1 x_02_1 <= t_02_1;
4.4 a_12_2 + 4.4 a_13_2 + 4.4 a_02_2 + 4.4 a_06_2 + 4.4 a_07_2 + 11 x_02_2 + r_02_2 x_02_2 <= t_02_2;
4.4 a_12_3 + 4.4 a_13_3 + 4.4 a_02_3 + 4.4 a_06_3 + 4.4 a_07_3 + 11 x_02_3 + r_02_3 x_02_3 <= t_02_3;
4.4 a_12_4 + 4.4 a_13_4 + 4.4 a_02_4 + 4.4 a_06_4 + 4.4 a_07_4 + 11 x_02_4 + r_02_4 x_02_4 <= t_02_4;
4.4 a_14_0 + 4.4 a_15_0 + 4.4 a_03_0 + 4.4 a_08_0 + 4.4 a_09_0 + 11 x_03_0 + r_03_0 x_03_0 <= t_03_0;
4.4 a_14_1 + 4.4 a_15_1 + 4.4 a_03_1 + 4.4 a_08_1 + 4.4 a_09_1 + 11 x_03_1 + r_03_1 x_03_1 <= t_03_1;
4.4 a_14_2 + 4.4 a_15_2 + 4.4 a_03_2 + 4.4 a_08_2 + 4.4 a_09_2 + 11 x_03_2 + r_03_2 x_03_2 <= t_03_2;
4.4 a_14_3 + 4.4 a_15_3 + 4.4 a_03_3 + 4.4 a_08_3 + 4.4 a_09_3 + 11 x_03_3 + r_03_3 x_03_3 <= t_03_3;
4.4 a_14_4 + 4.4 a_15_4 + 4.4 a_03_4 + 4.4 a_08_4 + 4.4 a_09_4 + 11 x_03_4 + r_03_4 x_03_4 <= t_03_4;
4.4 a_10_0 + 4.4 a_04_0 + 11 x_04_0 + r_04_0 x_04_0 <= t_04_0;
4.4 a_10_1 + 4.4 a_04_1 + 11 x_04_1 + r_04_1 x_04_1 <= t_04_1;
4.4 a_10_2 + 4.4 a_04_2 + 11 x_04_2 + r_04_2 x_04_2 <= t_04_2;
4.4 a_10_3 + 4.4 a_04_3 + 11 x_04_3 + r_04_3 x_04_3 <= t_04_3;
4.4 a_10_4 + 4.4 a_04_4 + 11 x_04_4 + r_04_4 x_04_4 <= t_04_4;
4.4 a_11_0 + 4.4 a_05_0 + 11 x_05_0 + r_05_0 x_05_0 <= t_06_0;
4.4 a_11_1 + 4.4 a_05_1 + 11 x_05_1 + r_05_1 x_05_1 <= t_06_1;
4.4 a_11_2 + 4.4 a_05_2 + 11 x_05_2 + r_05_2 x_05_2 <= t_06_2;
4.4 a_11_3 + 4.4 a_05_3 + 11 x_05_3 + r_05_3 x_05_3 <= t_06_3;
4.4 a_11_4 + 4.4 a_05_4 + 11 x_05_4 + r_05_4 x_05_4 <= t_06_4;
2.2 a_12_0 + 2.2 a_06_0 + 11 x_06_0 + r_06_0 x_06_0 <= t_04_0;
2.2 a_12_1 + 2.2 a_06_1 + 11 x_06_1 + r_06_1 x_06_1 <= t_04_1;
2.2 a_12_2 + 2.2 a_06_2 + 11 x_06_2 + r_06_2 x_06_2 <= t_04_2;
2.2 a_12_3 + 2.2 a_06_3 + 11 x_06_3 + r_06_3 x_06_3 <= t_04_3;
2.2 a_12_4 + 2.2 a_06_4 + 11 x_06_4 + r_06_4 x_06_4 <= t_04_4;
4.4 a_13_0 + 4.4 a_07_0 + 11 x_07_0 + r_07_0 x_07_0 <= t_05_0;
4.4 a_13_1 + 4.4 a_07_1 + 11 x_07_1 + r_07_1 x_07_1 <= t_05_1;
4.4 a_13_2 + 4.4 a_07_2 + 11 x_07_2 + r_07_2 x_07_2 <= t_05_2;
4.4 a_13_3 + 4.4 a_07_3 + 11 x_07_3 + r_07_3 x_07_3 <= t_05_3;
4.4 a_13_4 + 4.4 a_07_4 + 11 x_07_4 + r_07_4 x_07_4 <= t_05_4;
4.4 a_14_0 + 4.4 a_08_0 + 11 x_08_0 + r_08_0 x_08_0 <= t_05_0;
4.4 a_14_1 + 4.4 a_08_1 + 11 x_08_1 + r_08_1 x_08_1 <= t_05_1;
4.4 a_14_2 + 4.4 a_08_2 + 11 x_08_2 + r_08_2 x_08_2 <= t_05_2;
4.4 a_14_3 + 4.4 a_08_3 + 11 x_08_3 + r_08_3 x_08_3 <= t_05_3;
4.4 a_14_4 + 4.4 a_08_4 + 11 x_08_4 + r_08_4 x_08_4 <= t_05_4;
2.2 a_15_0 + 2.2 a_09_0 + 11 x_09_0 + r_09_0 x_09_0 <= t_06_0;
2.2 a_15_1 + 2.2 a_09_1 + 11 x_09_1 + r_09_1 x_09_1 <= t_06_1;
2.2 a_15_2 + 2.2 a_09_2 + 11 x_09_2 + r_09_2 x_09_2 <= t_06_2;
2.2 a_15_3 + 2.2 a_09_3 + 11 x_09_3 + r_09_3 x_09_3 <= t_06_3;
2.2 a_15_4 + 2.2 a_09_4 + 11 x_09_4 + r_09_4 x_09_4 <= t_06_4;
4.4 a_10_0 + 11 x_10_0 + r_10_0 x_10_0 <= t_07_0;
4.4 a_10_1 + 11 x_10_1 + r_10_1 x_10_1 <= t_07_1;
4.4 a_10_2 + 11 x_10_2 + r_10_2 x_10_2 <= t_07_2;
4.4 a_10_3 + 11 x_10_3 + r_10_3 x_10_3 <= t_07_3;
4.4 a_10_4 + 11 x_10_4 + r_10_4 x_10_4 <= t_07_4;
4.4 a_11_0 + 11 x_11_0 + r_11_0 x_11_0 <= t_07_0;
4.4 a_11_1 + 11 x_11_1 + r_11_1 x_11_1 <= t_07_1;
4.4 a_11_2 + 11 x_11_2 + r_11_2 x_11_2 <= t_07_2;
4.4 a_11_3 + 11 x_11_3 + r_11_3 x_11_3 <= t_07_3;
4.4 a_11_4 + 11 x_11_4 + r_11_4 x_11_4 <= t_07_4;
4.4 a_12_0 + 11 x_12_0 + r_12_0 x_12_0 <= t_07_0;
4.4 a_12_1 + 11 x_12_1 + r_12_1 x_12_1 <= t_07_1;
4.4 a_12_2 + 11 x_12_2 + r_12_2 x_12_2 <= t_07_2;
4.4 a_12_3 + 11 x_12_3 + r_12_3 x_12_3 <= t_07_3;
4.4 a_12_4 + 11 x_12_4 + r_12_4 x_12_4 <= t_07_4;
2.2 a_13_0 + 11 x_13_0 + r_13_0 x_13_0 <= t_07_0;
2.2 a_13_1 + 11 x_13_1 + r_13_1 x_13_1 <= t_07_1;
2.2 a_13_2 + 11 x_13_2 + r_13_2 x_13_2 <= t_07_2;
2.2 a_13_3 + 11 x_13_3 + r_13_3 x_13_3 <= t_07_3;
2.2 a_13_4 + 11 x_13_4 + r_13_4 x_13_4 <= t_07_4;
2.2 a_14_0 + 11 x_14_0 + r_14_0 x_14_0 <= t_07_0;
2.2 a_14_1 + 11 x_14_1 + r_14_1 x_14_1 <= t_07_1;
2.2 a_14_2 + 11 x_14_2 + r_14_2 x_14_2 <= t_07_2;
2.2 a_14_3 + 11 x_14_3 + r_14_3 x_14_3 <= t_07_3;
2.2 a_14_4 + 11 x_14_4 + r_14_4 x_14_4 <= t_07_4;
4.4 a_15_0 + 11 x_15_0 + r_15_0 x_15_0 <= t_07_0;
4.4 a_15_1 + 11 x_15_1 + r_15_1 x_15_1 <= t_07_1;
4.4 a_15_2 + 11 x_15_2 + r_15_2 x_15_2 <= t_07_2;
4.4 a_15_3 + 11 x_15_3 + r_15_3 x_15_3 <= t_07_3;
4.4 a_15_4 + 11 x_15_4 + r_15_4 x_15_4 <= t_07_4;
r_00_1 <= r_00_0;
r_00_2 <= r_00_1;
r_00_3 <= r_00_2;
r_00_4 <= r_00_3;
2.2 a_10_1 + 2.2 a_11_1 + 2.2 a_01_1 + 2.2 a_04_1 + 2.2 a_05_1 + r_01_1 + 11 x_01_1 <= r_01_0;
2.2 a_10_2 + 2.2 a_11_2 + 2.2 a_01_2 + 2.2 a_04_2 + 2.2 a_05_2 + r_01_2 + 11 x_01_2 <= r_01_1;
2.2 a_10_3 + 2.2 a_11_3 + 2.2 a_01_3 + 2.2 a_04_3 + 2.2 a_05_3 + r_01_3 + 11 x_01_3 <= r_01_2;
2.2 a_10_4 + 2.2 a_11_4 + 2.2 a_01_4 + 2.2 a_04_4 + 2.2 a_05_4 + r_01_4 + 11 x_01_4 <= r_01_3;
4.4 a_12_1 + 4.4 a_13_1 + 4.4 a_02_1 + 4.4 a_06_1 + 4.4 a_07_1 + r_02_1 + 11 x_02_1 <= r_02_0;
4.4 a_12_2 + 4.4 a_13_2 + 4.4 a_02_2 + 4.4 a_06_2 + 4.4 a_07_2 + r_02_2 + 11 x_02_2 <= r_02_1;
4.4 a_12_3 + 4.4 a_13_3 + 4.4 a_02_3 + 4.4 a_06_3 + 4.4 a_07_3 + r_02_3 + 11 x_02_3 <= r_02_2;
4.4 a_12_4 + 4.4 a_13_4 + 4.4 a_02_4 + 4.4 a_06_4 + 4.4 a_07_4 + r_02_4 + 11 x_02_4 <= r_02_3;
4.4 a_14_1 + 4.4 a_15_1 + 4.4 a_03_1 + 4.4 a_08_1 + 4.4 a_09_1 + r_03_1 + 11 x_03_1 <= r_03_0;
4.4 a_14_2 + 4.4 a_15_2 + 4.4 a_03_2 + 4.4 a_08_2 + 4.4 a_09_2 + r_03_2 + 11 x_03_2 <= r_03_1;
4.4 a_14_3 + 4.4 a_15_3 + 4.4 a_03_3 + 4.4 a_08_3 + 4.4 a_09_3 + r_03_3 + 11 x_03_3 <= r_03_2;
4.4 a_14_4 + 4.4 a_15_4 + 4.4 a_03_4 + 4.4 a_08_4 + 4.4 a_09_4 + r_03_4 + 11 x_03_4 <= r_03_3;
4.4 a_10_1 + 4.4 a_04_1 + r_04_1 + 11 x_04_1 <= r_04_0;
4.4 a_10_2 + 4.4 a_04_2 + r_04_2 + 11 x_04_2 <= r_04_1;
4.4 a_10_3 + 4.4 a_04_3 + r_04_3 + 11 x_04_3 <= r_04_2;
4.4 a_10_4 + 4.4 a_04_4 + r_04_4 + 11 x_04_4 <= r_04_3;
4.4 a_11_1 + 4.4 a_05_1 + r_05_1 + 11 x_05_1 <= r_05_0;
4.4 a_11_2 + 4.4 a_05_2 + r_05_2 + 11 x_05_2 <= r_05_1;
4.4 a_11_3 + 4.4 a_05_3 + r_05_3 + 11 x_05_3 <= r_05_2;
4.4 a_11_4 + 4.4 a_05_4 + r_05_4 + 11 x_05_4 <= r_05_3;
2.2 a_12_1 + 2.2 a_06_1 + r_06_1 + 11 x_06_1 <= r_06_0;
2.2 a_12_2 + 2.2 a_06_2 + r_06_2 + 11 x_06_2 <= r_06_1;
2.2 a_12_3 + 2.2 a_06_3 + r_06_3 + 11 x_06_3 <= r_06_2;
2.2 a_12_4 + 2.2 a_06_4 + r_06_4 + 11 x_06_4 <= r_06_3;
4.4 a_13_1 + 4.4 a_07_1 + r_07_1 + 11 x_07_1 <= r_07_0;
4.4 a_13_2 + 4.4 a_07_2 + r_07_2 + 11 x_07_2 <= r_07_1;
4.4 a_13_3 + 4.4 a_07_3 + r_07_3 + 11 x_07_3 <= r_07_2;
4.4 a_13_4 + 4.4 a_07_4 + r_07_4 + 11 x_07_4 <= r_07_3;
4.4 a_14_1 + 4.4 a_08_1 + r_08_1 + 11 x_08_1 <= r_08_0;
4.4 a_14_2 + 4.4 a_08_2 + r_08_2 + 11 x_08_2 <= r_08_1;
4.4 a_14_3 + 4.4 a_08_3 + r_08_3 + 11 x_08_3 <= r_08_2;
4.4 a_14_4 + 4.4 a_08_4 + r_08_4 + 11 x_08_4 <= r_08_3;
2.2 a_15_1 + 2.2 a_09_1 + r_09_1 + 11 x_09_1 <= r_09_0;
2.2 a_15_2 + 2.2 a_09_2 + r_09_2 + 11 x_09_2 <= r_09_1;
2.2 a_15_3 + 2.2 a_09_3 + r_09_3 + 11 x_09_3 <= r_09_2;
2.2 a_15_4 + 2.2 a_09_4 + r_09_4 + 11 x_09_4 <= r_09_3;
4.4 a_10_1 + r_10_1 + 11 x_10_1 <= r_10_0;
4.4 a_10_2 + r_10_2 + 11 x_10_2 <= r_10_1;
4.4 a_10_3 + r_10_3 + 11 x_10_3 <= r_10_2;
4.4 a_10_4 + r_10_4 + 11 x_10_4 <= r_10_3;
4.4 a_11_1 + r_11_1 + 11 x_11_1 <= r_11_0;
4.4 a_11_2 + r_11_2 + 11 x_11_2 <= r_11_1;
4.4 a_11_3 + r_11_3 + 11 x_11_3 <= r_11_2;
4.4 a_11_4 + r_11_4 + 11 x_11_4 <= r_11_3;
4.4 a_12_1 + r_12_1 + 11 x_12_1 <= r_12_0;
4.4 a_12_2 + r_12_2 + 11 x_12_2 <= r_12_1;
4.4 a_12_3 + r_12_3 + 11 x_12_3 <= r_12_2;
4.4 a_12_4 + r_12_4 + 11 x_12_4 <= r_12_3;
2.2 a_13_1 + r_13_1 + 11 x_13_1 <= r_13_0;
2.2 a_13_2 + r_13_2 + 11 x_13_2 <= r_13_1;
2.2 a_13_3 + r_13_3 + 11 x_13_3 <= r_13_2;
2.2 a_13_4 + r_13_4 + 11 x_13_4 <= r_13_3;
2.2 a_14_1 + r_14_1 + 11 x_14_1 <= r_14_0;
2.2 a_14_2 + r_14_2 + 11 x_14_2 <= r_14_1;
2.2 a_14_3 + r_14_3 + 11 x_14_3 <= r_14_2;
2.2 a_14_4 + r_14_4 + 11 x_14_4 <= r_14_3;
4.4 a_15_1 + r_15_1 + 11 x_15_1 <= r_15_0;
4.4 a_15_2 + r_15_2 + 11 x_15_2 <= r_15_1;
4.4 a_15_3 + r_15_3 + 11 x_15_3 <= r_15_2;
4.4 a_15_4 + r_15_4 + 11 x_15_4 <= r_15_3;
20 a_00_1 + t_00_1 <= t_00_0;
20 a_00_2 + t_00_2 <= t_00_1;
20 a_00_3 + t_00_3 <= t_00_2;
20 a_00_4 + t_00_4 <= t_00_3;
16 a_01_1 + t_01_1 <= t_01_0;
16 a_01_2 + t_01_2 <= t_01_1;
16 a_01_3 + t_01_3 <= t_01_2;
16 a_01_4 + t_01_4 <= t_01_3;
20 a_02_1 + t_02_1 <= t_02_0;
20 a_02_2 + t_02_2 <= t_02_1;
20 a_02_3 + t_02_3 <= t_02_2;
20 a_02_4 + t_02_4 <= t_02_3;
20 a_03_1 + t_03_1 <= t_03_0;
20 a_03_2 + t_03_2 <= t_03_1;
20 a_03_3 + t_03_3 <= t_03_2;
20 a_03_4 + t_03_4 <= t_03_3;
16 a_04_1 + 16 a_06_1 + t_04_1 <= t_04_0;
16 a_04_2 + 16 a_06_2 + t_04_2 <= t_04_1;
16 a_04_3 + 16 a_06_3 + t_04_3 <= t_04_2;
16 a_04_4 + 16 a_06_4 + t_04_4 <= t_04_3;
20 a_07_1 + 20 a_08_1 + t_05_1 <= t_05_0;
20 a_07_2 + 20 a_08_2 + t_05_2 <= t_05_1;
20 a_07_3 + 20 a_08_3 + t_05_3 <= t_05_2;
20 a_07_4 + 20 a_08_4 + t_05_4 <= t_05_3;
16 a_05_1 + 16 a_09_1 + t_06_1 <= t_06_0;
16 a_05_2 + 16 a_09_2 + t_06_2 <= t_06_1;
16 a_05_3 + 16 a_09_3 + t_06_3 <= t_06_2;
16 a_05_4 + 16 a_09_4 + t_06_4 <= t_06_3;
16 a_10_1 + 16 a_11_1 + 16 a_12_1 + 16 a_13_1 + 16 a_14_1 + 16 a_15_1 + t_07_1 <= t_07_0;
16 a_10_2 + 16 a_11_2 + 16 a_12_2 + 16 a_13_2 + 16 a_14_2 + 16 a_15_2 + t_07_2 <= t_07_1;
16 a_10_3 + 16 a_11_3 + 16 a_12_3 + 16 a_13_3 + 16 a_14_3 + 16 a_15_3 + t_07_3 <= t_07_2;
16 a_10_4 + 16 a_11_4 + 16 a_12_4 + 16 a_13_4 + 16 a_14_4 + 16 a_15_4 + t_07_4 <= t_07_3;
20 a_00_0 + t_00_0 <= T;
16 a_01_0 + t_01_0 <= T;
20 a_02_0 + t_02_0 <= T;
20 a_03_0 + t_03_0 <= T;
16 a_04_0 + 16 a_06_0 + t_04_0 <= T;
20 a_07_0 + 20 a_08_0 + t_05_0 <= T;
16 a_05_0 + 16 a_09_0 + t_06_0 <= T;
16 a_10_0 + 16 a_11_0 + 16 a_12_0 + 16 a_13_0 + 16 a_14_0 + 16 a_15_0 + t_07_0 <= T;
a_00_0 <= 10000 x_00_0;
a_00_1 <= 10000 x_00_1;
a_00_2 <= 10000 x_00_2;
a_00_3 <= 10000 x_00_3;
a_00_4 <= 10000 x_00_4;
a_10_0 + a_11_0 + a_01_0 + a_04_0 + a_05_0 <= 10000 x_01_0;
a_10_1 + a_11_1 + a_01_1 + a_04_1 + a_05_1 <= 10000 x_01_1;
a_10_2 + a_11_2 + a_01_2 + a_04_2 + a_05_2 <= 10000 x_01_2;
a_10_3 + a_11_3 + a_01_3 + a_04_3 + a_05_3 <= 10000 x_01_3;
a_10_4 + a_11_4 + a_01_4 + a_04_4 + a_05_4 <= 10000 x_01_4;
a_12_0 + a_13_0 + a_02_0 + a_06_0 + a_07_0 <= 10000 x_02_0;
a_12_1 + a_13_1 + a_02_1 + a_06_1 + a_07_1 <= 10000 x_02_1;
a_12_2 + a_13_2 + a_02_2 + a_06_2 + a_07_2 <= 10000 x_02_2;
a_12_3 + a_13_3 + a_02_3 + a_06_3 + a_07_3 <= 10000 x_02_3;
a_12_4 + a_13_4 + a_02_4 + a_06_4 + a_07_4 <= 10000 x_02_4;
a_14_0 + a_15_0 + a_03_0 + a_08_0 + a_09_0 <= 10000 x_03_0;
a_14_1 + a_15_1 + a_03_1 + a_08_1 + a_09_1 <= 10000 x_03_1;
a_14_2 + a_15_2 + a_03_2 + a_08_2 + a_09_2 <= 10000 x_03_2;
a_14_3 + a_15_3 + a_03_3 + a_08_3 + a_09_3 <= 10000 x_03_3;
a_14_4 + a_15_4 + a_03_4 + a_08_4 + a_09_4 <= 10000 x_03_4;
a_10_0 + a_04_0 <= 10000 x_04_0;
a_10_1 + a_04_1 <= 10000 x_04_1;
a_10_2 + a_04_2 <= 10000 x_04_2;
a_10_3 + a_04_3 <= 10000 x_04_3;
a_10_4 + a_04_4 <= 10000 x_04_4;
a_11_0 + a_05_0 <= 10000 x_05_0;
a_11_1 + a_05_1 <= 10000 x_05_1;
a_11_2 + a_05_2 <= 10000 x_05_2;
a_11_3 + a_05_3 <= 10000 x_05_3;
a_11_4 + a_05_4 <= 10000 x_05_4;
a_12_0 + a_06_0 <= 10000 x_06_0;
a_12_1 + a_06_1 <= 10000 x_06_1;
a_12_2 + a_06_2 <= 10000 x_06_2;
a_12_3 + a_06_3 <= 10000 x_06_3;
a_12_4 + a_06_4 <= 10000 x_06_4;
a_13_0 + a_07_0 <= 10000 x_07_0;
a_13_1 + a_07_1 <= 10000 x_07_1;
a_13_2 + a_07_2 <= 10000 x_07_2;
a_13_3 + a_07_3 <= 10000 x_07_3;
a_13_4 + a_07_4 <= 10000 x_07_4;
a_14_0 + a_08_0 <= 10000 x_08_0;
a_14_1 + a_08_1 <= 10000 x_08_1;
a_14_2 + a_08_2 <= 10000 x_08_2;
a_14_3 + a_08_3 <= 10000 x_08_3;
a_14_4 + a_08_4 <= 10000 x_08_4;
a_15_0 + a_09_0 <= 10000 x_09_0;
a_15_1 + a_09_1 <= 10000 x_09_1;
a_15_2 + a_09_2 <= 10000 x_09_2;
a_15_3 + a_09_3 <= 10000 x_09_3;
a_15_4 + a_09_4 <= 10000 x_09_4;
a_10_0 <= 10000 x_10_0;
a_10_1 <= 10000 x_10_1;
a_10_2 <= 10000 x_10_2;
a_10_3 <= 10000 x_10_3;
a_10_4 <= 10000 x_10_4;
a_11_0 <= 10000 x_11_0;
a_11_1 <= 10000 x_11_1;
a_11_2 <= 10000 x_11_2;
a_11_3 <= 10000 x_11_3;
a_11_4 <= 10000 x_11_4;
a_12_0 <= 10000 x_12_0;
a_12_1 <= 10000 x_12_1;
a_12_2 <= 10000 x_12_2;
a_12_3 <= 10000 x_12_3;
a_12_4 <= 10000 x_12_4;
a_13_0 <= 10000 x_13_0;
a_13_1 <= 10000 x_13_1;
a_13_2 <= 10000 x_13_2;
a_13_3 <= 10000 x_13_3;
a_13_4 <= 10000 x_13_4;
a_14_0 <= 10000 x_14_0;
a_14_1 <= 10000 x_14_1;
a_14_2 <= 10000 x_14_2;
a_14_3 <= 10000 x_14_3;
a_14_4 <= 10000 x_14_4;
a_15_0 <= 10000 x_15_0;
a_15_1 <= 10000 x_15_1;
a_15_2 <= 10000 x_15_2;
a_15_3 <= 10000 x_15_3;
a_15_4 <= 10000 x_15_4;
a_10_0 + a_10_1 + a_10_2 + a_10_3 + a_10_4 + a_11_0 + a_11_1 + a_11_2 + a_11_3 + a_11_4 + a_12_0 + a_12_1 + a_12_2 + a_12_3 + a_12_4 +
   a_13_0 + a_13_1 + a_13_2 + a_13_3 + a_13_4 + a_14_0 + a_14_1 + a_14_2 + a_14_3 + a_14_4 + a_15_0 + a_15_1 + a_15_2 + a_15_3 + a_15_4 +
   a_00_0 + a_00_1 + a_00_2 + a_00_3 + a_00_4 + a_01_0 + a_01_1 + a_01_2 + a_01_3 + a_01_4 + a_02_0 + a_02_1 + a_02_2 + a_02_3 + a_02_4 +
   a_03_0 + a_03_1 + a_03_2 + a_03_3 + a_03_4 + a_04_0 + a_04_1 + a_04_2 + a_04_3 + a_04_4 + a_05_0 + a_05_1 + a_05_2 + a_05_3 + a_05_4 +
   a_06_0 + a_06_1 + a_06_2 + a_06_3 + a_06_4 + a_07_0 + a_07_1 + a_07_2 + a_07_3 + a_07_4 + a_08_0 + a_08_1 + a_08_2 + a_08_3 + a_08_4 +
   a_09_0 + a_09_1 + a_09_2 + a_09_3 + a_09_4 = 10000;
r_00_0 = rk_00_0;
r_00_1 = rk_00_1;
r_00_2 = rk_00_2;
r_00_3 = rk_00_3;
r_00_4 = rk_00_4;
2.2 a_10_0 + 2.2 a_11_0 + 2.2 a_01_0 + 2.2 a_04_0 + 2.2 a_05_0 + r_01_0 + 11 x_01_0 = rk_01_0;
2.2 a_10_1 + 2.2 a_11_1 + 2.2 a_01_1 + 2.2 a_04_1 + 2.2 a_05_1 + r_01_1 + 11 x_01_1 = rk_01_1;
2.2 a_10_2 + 2.2 a_11_2 + 2.2 a_01_2 + 2.2 a_04_2 + 2.2 a_05_2 + r_01_2 + 11 x_01_2 = rk_01_2;
2.2 a_10_3 + 2.2 a_11_3 + 2.2 a_01_3 + 2.2 a_04_3 + 2.2 a_05_3 + r_01_3 + 11 x_01_3 = rk_01_3;
2.2 a_10_4 + 2.2 a_11_4 + 2.2 a_01_4 + 2.2 a_04_4 + 2.2 a_05_4 + r_01_4 + 11 x_01_4 = rk_01_4;
4.4 a_12_0 + 4.4 a_13_0 + 4.4 a_02_0 + 4.4 a_06_0 + 4.4 a_07_0 + r_02_0 + 11 x_02_0 = rk_02_0;
4.4 a_12_1 + 4.4 a_13_1 + 4.4 a_02_1 + 4.4 a_06_1 + 4.4 a_07_1 + r_02_1 + 11 x_02_1 = rk_02_1;
4.4 a_12_2 + 4.4 a_13_2 + 4.4 a_02_2 + 4.4 a_06_2 + 4.4 a_07_2 + r_02_2 + 11 x_02_2 = rk_02_2;
4.4 a_12_3 + 4.4 a_13_3 + 4.4 a_02_3 + 4.4 a_06_3 + 4.4 a_07_3 + r_02_3 + 11 x_02_3 = rk_02_3;
4.4 a_12_4 + 4.4 a_13_4 + 4.4 a_02_4 + 4.4 a_06_4 + 4.4 a_07_4 + r_02_4 + 11 x_02_4 = rk_02_4;
4.4 a_14_0 + 4.4 a_15_0 + 4.4 a_03_0 + 4.4 a_08_0 + 4.4 a_09_0 + r_03_0 + 11 x_03_0 = rk_03_0;
4.4 a_14_1 + 4.4 a_15_1 + 4.4 a_03_1 + 4.4 a_08_1 + 4.4 a_09_1 + r_03_1 + 11 x_03_1 = rk_03_1;
4.4 a_14_2 + 4.4 a_15_2 + 4.4 a_03_2 + 4.4 a_08_2 + 4.4 a_09_2 + r_03_2 + 11 x_03_2 = rk_03_2;
4.4 a_14_3 + 4.4 a_15_3 + 4.4 a_03_3 + 4.4 a_08_3 + 4.4 a_09_3 + r_03_3 + 11 x_03_3 = rk_03_3;
4.4 a_14_4 + 4.4 a_15_4 + 4.4 a_03_4 + 4.4 a_08_4 + 4.4 a_09_4 + r_03_4 + 11 x_03_4 = rk_03_4;
4.4 a_10_0 + 4.4 a_04_0 + r_04_0 + 11 x_04_0 = rk_04_0;
4.4 a_10_1 + 4.4 a_04_1 + r_04_1 + 11 x_04_1 = rk_04_1;
4.4 a_10_2 + 4.4 a_04_2 + r_04_2 + 11 x_04_2 = rk_04_2;
4.4 a_10_3 + 4.4 a_04_3 + r_04_3 + 11 x_04_3 = rk_04_3;
4.4 a_10_4 + 4.4 a_04_4 + r_04_4 + 11 x_04_4 = rk_04_4;
4.4 a_11_0 + 4.4 a_05_0 + r_05_0 + 11 x_05_0 = rk_05_0;
4.4 a_11_1 + 4.4 a_05_1 + r_05_1 + 11 x_05_1 = rk_05_1;
4.4 a_11_2 + 4.4 a_05_2 + r_05_2 + 11 x_05_2 = rk_05_2;
4.4 a_11_3 + 4.4 a_05_3 + r_05_3 + 11 x_05_3 = rk_05_3;
4.4 a_11_4 + 4.4 a_05_4 + r_05_4 + 11 x_05_4 = rk_05_4;
2.2 a_12_0 + 2.2 a_06_0 + r_06_0 + 11 x_06_0 = rk_06_0;
2.2 a_12_1 + 2.2 a_06_1 + r_06_1 + 11 x_06_1 = rk_06_1;
2.2 a_12_2 + 2.2 a_06_2 + r_06_2 + 11 x_06_2 = rk_06_2;
2.2 a_12_3 + 2.2 a_06_3 + r_06_3 + 11 x_06_3 = rk_06_3;
2.2 a_12_4 + 2.2 a_06_4 + r_06_4 + 11 x_06_4 = rk_06_4;
4.4 a_13_0 + 4.4 a_07_0 + r_07_0 + 11 x_07_0 = rk_07_0;
4.4 a_13_1 + 4.4 a_07_1 + r_07_1 + 11 x_07_1 = rk_07_1;
4.4 a_13_2 + 4.4 a_07_2 + r_07_2 + 11 x_07_2 = rk_07_2;
4.4 a_13_3 + 4.4 a_07_3 + r_07_3 + 11 x_07_3 = rk_07_3;
4.4 a_13_4 + 4.4 a_07_4 + r_07_4 + 11 x_07_4 = rk_07_4;
4.4 a_14_0 + 4.4 a_08_0 + r_08_0 + 11 x_08_0 = rk_08_0;
4.4 a_14_1 + 4.4 a_08_1 + r_08_1 + 11 x_08_1 = rk_08_1;
4.4 a_14_2 + 4.4 a_08_2 + r_08_2 + 11 x_08_2 = rk_08_2;
4.4 a_14_3 + 4.4 a_08_3 + r_08_3 + 11 x_08_3 = rk_08_3;
4.4 a_14_4 + 4.4 a_08_4 + r_08_4 + 11 x_08_4 = rk_08_4;
2.2 a_15_0 + 2.2 a_09_0 + r_09_0 + 11 x_09_0 = rk_09_0;
2.2 a_15_1 + 2.2 a_09_1 + r_09_1 + 11 x_09_1 = rk_09_1;
2.2 a_15_2 + 2.2 a_09_2 + r_09_2 + 11 x_09_2 = rk_09_2;
2.2 a_15_3 + 2.2 a_09_3 + r_09_3 + 11 x_09_3 = rk_09_3;
2.2 a_15_4 + 2.2 a_09_4 + r_09_4 + 11 x_09_4 = rk_09_4;
4.4 a_10_0 + r_10_0 + 11 x_10_0 = rk_10_0;
4.4 a_10_1 + r_10_1 + 11 x_10_1 = rk_10_1;
4.4 a_10_2 + r_10_2 + 11 x_10_2 = rk_10_2;
4.4 a_10_3 + r_10_3 + 11 x_10_3 = rk_10_3;
4.4 a_10_4 + r_10_4 + 11 x_10_4 = rk_10_4;
4.4 a_11_0 + r_11_0 + 11 x_11_0 = rk_11_0;
4.4 a_11_1 + r_11_1 + 11 x_11_1 = rk_11_1;
4.4 a_11_2 + r_11_2 + 11 x_11_2 = rk_11_2;
4.4 a_11_3 + r_11_3 + 11 x_11_3 = rk_11_3;
4.4 a_11_4 + r_11_4 + 11 x_11_4 = rk_11_4;
4.4 a_12_0 + r_12_0 + 11 x_12_0 = rk_12_0;
4.4 a_12_1 + r_12_1 + 11 x_12_1 = rk_12_1;
4.4 a_12_2 + r_12_2 + 11 x_12_2 = rk_12_2;
4.4 a_12_3 + r_12_3 + 11 x_12_3 = rk_12_3;
4.4 a_12_4 + r_12_4 + 11 x_12_4 = rk_12_4;
2.2 a_13_0 + r_13_0 + 11 x_13_0 = rk_13_0;
2.2 a_13_1 + r_13_1 + 11 x_13_1 = rk_13_1;
2.2 a_13_2 + r_13_2 + 11 x_13_2 = rk_13_2;
2.2 a_13_3 + r_13_3 + 11 x_13_3 = rk_13_3;
2.2 a_13_4 + r_13_4 + 11 x_13_4 = rk_13_4;
2.2 a_14_0 + r_14_0 + 11 x_14_0 = rk_14_0;
2.2 a_14_1 + r_14_1 + 11 x_14_1 = rk_14_1;
2.2 a_14_2 + r_14_2 + 11 x_14_2 = rk_14_2;
2.2 a_14_3 + r_14_3 + 11 x_14_3 = rk_14_3;
2.2 a_14_4 + r_14_4 + 11 x_14_4 = rk_14_4;
4.4 a_15_0 + r_15_0 + 11 x_15_0 = rk_15_0;
4.4 a_15_1 + r_15_1 + 11 x_15_1 = rk_15_1;
4.4 a_15_2 + r_15_2 + 11 x_15_2 = rk_15_2;
4.4 a_15_3 + r_15_3 + 11 x_15_3 = rk_15_3;
4.4 a_15_4 + r_15_4 + 11 x_15_4 = rk_15_4;
20 a_00_0 + t_00_0 = tk_00_0;
20 a_00_1 + t_00_1 = tk_00_1;
20 a_00_2 + t_00_2 = tk_00_2;
20 a_00_3 + t_00_3 = tk_00_3;
20 a_00_4 + t_00_4 = tk_00_4;
16 a_01_0 + t_01_0 = tk_01_0;
16 a_01_1 + t_01_1 = tk_01_1;
16 a_01_2 + t_01_2 = tk_01_2;
16 a_01_3 + t_01_3 = tk_01_3;
16 a_01_4 + t_01_4 = tk_01_4;
20 a_02_0 + t_02_0 = tk_02_0;
20 a_02_1 + t_02_1 = tk_02_1;
20 a_02_2 + t_02_2 = tk_02_2;
20 a_02_3 + t_02_3 = tk_02_3;
20 a_02_4 + t_02_4 = tk_02_4;
20 a_03_0 + t_03_0 = tk_03_0;
20 a_03_1 + t_03_1 = tk_03_1;
20 a_03_2 + t_03_2 = tk_03_2;
20 a_03_3 + t_03_3 = tk_03_3;
20 a_03_4 + t_03_4 = tk_03_4;
16 a_04_0 + 16 a_06_0 + t_04_0 = tk_04_0;
16 a_04_1 + 16 a_06_1 + t_04_1 = tk_04_1;
16 a_04_2 + 16 a_06_2 + t_04_2 = tk_04_2;
16 a_04_3 + 16 a_06_3 + t_04_3 = tk_04_3;
16 a_04_4 + 16 a_06_4 + t_04_4 = tk_04_4;
20 a_07_0 + 20 a_08_0 + t_05_0 = tk_05_0;
20 a_07_1 + 20 a_08_1 + t_05_1 = tk_05_1;
20 a_07_2 + 20 a_08_2 + t_05_2 = tk_05_2;
20 a_07_3 + 20 a_08_3 + t_05_3 = tk_05_3;
20 a_07_4 + 20 a_08_4 + t_05_4 = tk_05_4;
16 a_05_0 + 16 a_09_0 + t_06_0 = tk_06_0;
16 a_05_1 + 16 a_09_1 + t_06_1 = tk_06_1;
16 a_05_2 + 16 a_09_2 + t_06_2 = tk_06_2;
16 a_05_3 + 16 a_09_3 + t_06_3 = tk_06_3;
16 a_05_4 + 16 a_09_4 + t_06_4 = tk_06_4;
16 a_10_0 + 16 a_11_0 + 16 a_12_0 + 16 a_13_0 + 16 a_14_0 + 16 a_15_0 + t_07_0 = tk_07_0;
16 a_10_1 + 16 a_11_1 + 16 a_12_1 + 16 a_13_1 + 16 a_14_1 + 16 a_15_1 + t_07_1 = tk_07_1;
16 a_10_2 + 16 a_11_2 + 16 a_12_2 + 16 a_13_2 + 16 a_14_2 + 16 a_15_2 + t_07_2 = tk_07_2;
16 a_10_3 + 16 a_11_3 + 16 a_12_3 + 16 a_13_3 + 16 a_14_3 + 16 a_15_3 + t_07_3 = tk_07_3;
16 a_10_4 + 16 a_11_4 + 16 a_12_4 + 16 a_13_4 + 16 a_14_4 + 16 a_15_4 + t_07_4 = tk_07_4;
m = 5;
pv_0 = 0;
pv_1 = 0;
pv_2 = 0;
pv_3 = 0;
pv_4 = 1;
pv_5 = 1;
pv_6 = 2;
pv_7 = 2;
pv_8 = 3;
pv_9 = 3;
pv_10 = 4;
pv_11 = 5;
pv_12 = 6;
pv_13 = 7;
pv_14 = 8;
pv_15 = 9;
pc_0 = 0;
pc_1 = 1;
pc_2 = 2;
pc_3 = 3;
pc_4 = 4;
pc_5 = 6;
pc_6 = 4;
pc_7 = 5;
pc_8 = 5;
pc_9 = 6;
pc_10 = 7;
pc_11 = 7;
pc_12 = 7;
pc_13 = 7;
pc_14 = 7;
pc_15 = 7;
int x_00_0, x_00_1, x_00_2, x_00_3, x_00_4, x_01_0, x_01_1, x_01_2, x_01_3, x_01_4, x_02_0, x_02_1, x_02_2, x_02_3, x_02_4, x_03_0, x_03_1,
   x_03_2, x_03_3, x_03_4, x_04_0, x_04_1, x_04_2, x_04_3, x_04_4, x_05_0, x_05_1, x_05_2, x_05_3, x_05_4, x_06_0, x_06_1, x_06_2, x_06_3,
   x_06_4, x_07_0, x_07_1, x_07_2, x_07_3, x_07_4, x_08_0, x_08_1, x_08_2, x_08_3, x_08_4, x_09_0, x_09_1, x_09_2, x_09_3, x_09_4, x_10_0,
   x_10_1, x_10_2, x_10_3, x_10_4, x_11_0, x_11_1, x_11_2, x_11_3, x_11_4, x_12_0, x_12_1, x_12_2, x_12_3, x_12_4, x_13_0, x_13_1, x_13_2,
   x_13_3, x_13_4, x_14_0, x_14_1, x_14_2, x_14_3, x_14_4, x_15_0, x_15_1, x_15_2, x_15_3, x_15_4;